solution status: optimal solution found
objective value:                                   12
thing.thing.chamber[0].thingy.v4_y                    9 	(obj:0)
thing.thing.chamber[0].thingy.v4_z                   17 	(obj:0)
thing.thing.lysis_y                                10 	(obj:0)
thing.thing.lysis_z                                16 	(obj:0)
thing.thing.wash_y                                 11 	(obj:0)
thing.thing.wash_z                                 15 	(obj:0)
thing.thing.elute_y                                12 	(obj:0)
thing.thing.elute_z                                15 	(obj:0)
thing.thing.chamber[0].thingy.v6_y                   10 	(obj:0)
thing.thing.chamber[0].thingy.v6_z                   17 	(obj:0)
thing.thing.chamber[0].thingy.v8_y                   12 	(obj:0)
thing.thing.chamber[0].thingy.v8_z                   16 	(obj:0)
x22                                                 1 	(obj:1)
x23                                                 2 	(obj:1)
x24                                                 1 	(obj:1)
x29                                                 1 	(obj:1)
x30                                                 2 	(obj:1)
x31                                                 2 	(obj:1)
x36                                                 2 	(obj:1)
x37                                                 1 	(obj:1)
